(set-info :smt-lib-version 2.6)
(set-logic QF_SLIA)
(set-info :source |
Generated by: Joel Day, Thorsten Ehlers, Mitja Kulczynski, Federico Mora, Florin Manea, Dirk Nowotka, Danny Poulsen, Zhengyang Lu
Application: Test WOORPJE
Target solver: WOORPJE
Publications: Day, J. D., Ehlers, T., Kulczynski, M., Manea, F., Nowotka, D., & Poulsen, D. B. (2019). On solving word equations using SAT. In RP 2019
Description: Enriches a system of 30 word equations by suitable linear constraints
|)
(set-info :license "https://creativecommons.org/licenses/by/4.0/")
(set-info :category "random")
(set-info :status unknown)

(declare-fun I () String)
(declare-fun G () String)
(declare-fun A () String)
(assert (= (str.++  "fb" G "eccfdb")  (str.++  "fbafbffefbceaabf" A "fdb") ))
(assert (= (str.++  "cebabd" I "ccb" I "c" I "edcffedbeabca" I "cbcfaa" I "fdbbcb")  (str.++  "cebabddccb" I "cdedcffe" I "beabcadcbcfaa" I "f" I "bbcb") ))
(assert (= (str.++  "cdbc" I "bdabffbceccb" I "bfbadbdfcedc" I "fabf" I "adba")  (str.++  "c" I "bcdb" I "abffbceccb" I "bfbadbdfce" I "cdfabfda" I "ba") ))
(assert (>=(* (str.len G) 12) 324))
(assert (<=(* (str.len I) 10) 90))
(check-sat)

(exit)
